Minimize
	value: tt

Subject to
tt + 1000 s_1_1 > 0.0
tt - t_1_1 - 1008.502714 s_1_1  + 8.502714 s_1_7  > -964.489511
tt + 1000 s_2_1 > 0.0
tt - t_2_1 - 1008.509700 s_2_1  + 8.509700 s_2_7  > -929.830133
tt + 1000 s_1_2 > 0.0
tt - t_1_2 - 1008.502714 s_1_2  + 8.502714 s_1_7  > -967.145000
tt + 1000 s_2_2 > 0.0
tt - t_2_2 - 1008.509700 s_2_2  + 8.509700 s_2_7  > -949.161669
tt + 1000 s_1_3 > 0.0
tt - t_1_3 - 1008.502714 s_1_3  + 8.502714 s_1_7  > -972.907800
tt + 1000 s_2_3 > 0.0
tt - t_2_3 - 1008.509700 s_2_3  + 8.509700 s_2_7  > -961.815067
tt + 1000 s_1_4 > 0.0
tt - t_1_4 - 1009.710776 s_1_4  + 4.855388 s_1_1  + 4.855388 s_1_2  > -994.818600
tt + 1000 s_2_4 > 0.0
tt - t_2_4 - 1007.011569 s_2_4  + 3.505785 s_2_1  + 3.505785 s_2_2  > -994.909644
tt + 1000 s_1_5 > 0.0
tt - t_1_5 - 1013.358102 s_1_5  + 4.855388 s_1_1  + 8.502714 s_1_7  > -985.295600
tt + 1000 s_2_5 > 0.0
tt - t_2_5 - 1012.015485 s_2_5  + 3.505785 s_2_1  + 8.509700 s_2_7  > -978.476086
tt + 1000 s_1_6 > 0.0
tt - t_1_6 - 1019.421552 s_1_6  + 4.855388 s_1_2  + 4.855388 s_1_3  + 4.855388 s_1_4  + 4.855388 s_1_5  > -996.066300
tt + 1000 s_2_6 > 0.0
tt - t_2_6 - 1014.023138 s_2_6  + 3.505785 s_2_2  + 3.505785 s_2_3  + 3.505785 s_2_4  + 3.505785 s_2_5  > -968.082200
tt + 1000 s_1_7 > 0.0
tt - t_1_7 - 1000.000000 s_1_7  > -982.060833
tt + 1000 s_2_7 > 0.0
tt - t_2_7 - 1000.000000 s_2_7  > -976.580100
s_1_1 + s_2_1 = 1
s_1_2 + s_2_2 = 1
s_1_3 + s_2_3 = 1
s_1_4 + s_2_4 = 1
s_1_5 + s_2_5 = 1
s_1_6 + s_2_6 = 1
s_1_7 + s_2_7 = 1
s_1_1 + s_1_2 + 1000 r_1_1_2 >= 2
- s_1_1 - s_1_2 - 1000 r_1_1_2 >= -1001
t_1_1 - t_1_2 - 1000.000000 u_1_1_2 - 8.502714 s_1_2  + 8.502714 s_1_7  + 2000.000000 r_1_1_2 > -967.145000
s_2_1 + s_2_2 + 1000 r_2_1_2 >= 2
- s_2_1 - s_2_2 - 1000 r_2_1_2 >= -1001
t_2_1 - t_2_2 - 1000.000000 u_2_1_2 - 8.509700 s_2_2  + 8.509700 s_2_7  + 2000.000000 r_2_1_2 > -949.161669
s_1_1 + s_1_3 + 1000 r_1_1_3 >= 2
- s_1_1 - s_1_3 - 1000 r_1_1_3 >= -1001
t_1_1 - t_1_3 - 1000.000000 u_1_1_3 - 8.502714 s_1_3  + 8.502714 s_1_7  + 2000.000000 r_1_1_3 > -972.907800
s_2_1 + s_2_3 + 1000 r_2_1_3 >= 2
- s_2_1 - s_2_3 - 1000 r_2_1_3 >= -1001
t_2_1 - t_2_3 - 1000.000000 u_2_1_3 - 8.509700 s_2_3  + 8.509700 s_2_7  + 2000.000000 r_2_1_3 > -961.815067
t_1_4 - t_1_1 - 1008.502714 s_1_1  + 8.502714 s_1_7  > -964.489511
t_1_4 - t_2_1 - 1008.509700 s_2_1  + 8.509700 s_2_7  > -929.830133
t_2_4 - t_1_1 - 1008.502714 s_1_1  + 8.502714 s_1_7  > -964.489511
t_2_4 - t_2_1 - 1008.509700 s_2_1  + 8.509700 s_2_7  > -929.830133
t_1_5 - t_1_1 - 1008.502714 s_1_1  + 8.502714 s_1_7  > -964.489511
t_1_5 - t_2_1 - 1008.509700 s_2_1  + 8.509700 s_2_7  > -929.830133
t_2_5 - t_1_1 - 1008.502714 s_1_1  + 8.502714 s_1_7  > -964.489511
t_2_5 - t_2_1 - 1008.509700 s_2_1  + 8.509700 s_2_7  > -929.830133
t_1_1 - t_1_7 - 1000.000000 s_1_7  > -982.060833
t_1_1 - t_2_7 - 1000.000000 s_2_7  > -976.580100
t_2_1 - t_1_7 - 1000.000000 s_1_7  > -982.060833
t_2_1 - t_2_7 - 1000.000000 s_2_7  > -976.580100
s_1_2 + s_1_1 + 1000 r_1_1_2 >= 2
- s_1_2 - s_1_1 - 1000 r_1_1_2 >= -1001
t_1_2 - t_1_1 + 1000.000000 u_1_1_2 - 8.502714 s_1_1  + 8.502714 s_1_7  + 2000.000000 r_1_1_2 > 35.510489
s_2_2 + s_2_1 + 1000 r_2_1_2 >= 2
- s_2_2 - s_2_1 - 1000 r_2_1_2 >= -1001
t_2_2 - t_2_1 + 1000.000000 u_2_1_2 - 8.509700 s_2_1  + 8.509700 s_2_7  + 2000.000000 r_2_1_2 > 70.169867
s_1_2 + s_1_3 + 1000 r_1_2_3 >= 2
- s_1_2 - s_1_3 - 1000 r_1_2_3 >= -1001
t_1_2 - t_1_3 - 1000.000000 u_1_2_3 - 8.502714 s_1_3  + 8.502714 s_1_7  + 2000.000000 r_1_2_3 > -972.907800
s_2_2 + s_2_3 + 1000 r_2_2_3 >= 2
- s_2_2 - s_2_3 - 1000 r_2_2_3 >= -1001
t_2_2 - t_2_3 - 1000.000000 u_2_2_3 - 8.509700 s_2_3  + 8.509700 s_2_7  + 2000.000000 r_2_2_3 > -961.815067
t_1_4 - t_1_2 - 1008.502714 s_1_2  + 8.502714 s_1_7  > -967.145000
t_1_4 - t_2_2 - 1008.509700 s_2_2  + 8.509700 s_2_7  > -949.161669
t_2_4 - t_1_2 - 1008.502714 s_1_2  + 8.502714 s_1_7  > -967.145000
t_2_4 - t_2_2 - 1008.509700 s_2_2  + 8.509700 s_2_7  > -949.161669
s_1_2 + s_1_5 + 1000 r_1_2_5 >= 2
- s_1_2 - s_1_5 - 1000 r_1_2_5 >= -1001
t_1_2 - t_1_5 - 1000.000000 u_1_2_5 - 13.358102 s_1_5  + 4.855388 s_1_1  + 8.502714 s_1_7  + 2000.000000 r_1_2_5 > -985.295600
s_2_2 + s_2_5 + 1000 r_2_2_5 >= 2
- s_2_2 - s_2_5 - 1000 r_2_2_5 >= -1001
t_2_2 - t_2_5 - 1000.000000 u_2_2_5 - 12.015485 s_2_5  + 3.505785 s_2_1  + 8.509700 s_2_7  + 2000.000000 r_2_2_5 > -978.476086
t_1_6 - t_1_2 - 1008.502714 s_1_2  + 8.502714 s_1_7  > -967.145000
t_1_6 - t_2_2 - 1008.509700 s_2_2  + 8.509700 s_2_7  > -949.161669
t_2_6 - t_1_2 - 1008.502714 s_1_2  + 8.502714 s_1_7  > -967.145000
t_2_6 - t_2_2 - 1008.509700 s_2_2  + 8.509700 s_2_7  > -949.161669
t_1_2 - t_1_7 - 1000.000000 s_1_7  > -982.060833
t_1_2 - t_2_7 - 1000.000000 s_2_7  > -976.580100
t_2_2 - t_1_7 - 1000.000000 s_1_7  > -982.060833
t_2_2 - t_2_7 - 1000.000000 s_2_7  > -976.580100
s_1_3 + s_1_1 + 1000 r_1_1_3 >= 2
- s_1_3 - s_1_1 - 1000 r_1_1_3 >= -1001
t_1_3 - t_1_1 + 1000.000000 u_1_1_3 - 8.502714 s_1_1  + 8.502714 s_1_7  + 2000.000000 r_1_1_3 > 35.510489
s_2_3 + s_2_1 + 1000 r_2_1_3 >= 2
- s_2_3 - s_2_1 - 1000 r_2_1_3 >= -1001
t_2_3 - t_2_1 + 1000.000000 u_2_1_3 - 8.509700 s_2_1  + 8.509700 s_2_7  + 2000.000000 r_2_1_3 > 70.169867
s_1_3 + s_1_2 + 1000 r_1_2_3 >= 2
- s_1_3 - s_1_2 - 1000 r_1_2_3 >= -1001
t_1_3 - t_1_2 + 1000.000000 u_1_2_3 - 8.502714 s_1_2  + 8.502714 s_1_7  + 2000.000000 r_1_2_3 > 32.855000
s_2_3 + s_2_2 + 1000 r_2_2_3 >= 2
- s_2_3 - s_2_2 - 1000 r_2_2_3 >= -1001
t_2_3 - t_2_2 + 1000.000000 u_2_2_3 - 8.509700 s_2_2  + 8.509700 s_2_7  + 2000.000000 r_2_2_3 > 50.838331
s_1_3 + s_1_4 + 1000 r_1_3_4 >= 2
- s_1_3 - s_1_4 - 1000 r_1_3_4 >= -1001
t_1_3 - t_1_4 - 1000.000000 u_1_3_4 - 9.710776 s_1_4  + 4.855388 s_1_1  + 4.855388 s_1_2  + 2000.000000 r_1_3_4 > -994.818600
s_2_3 + s_2_4 + 1000 r_2_3_4 >= 2
- s_2_3 - s_2_4 - 1000 r_2_3_4 >= -1001
t_2_3 - t_2_4 - 1000.000000 u_2_3_4 - 7.011569 s_2_4  + 3.505785 s_2_1  + 3.505785 s_2_2  + 2000.000000 r_2_3_4 > -994.909644
s_1_3 + s_1_5 + 1000 r_1_3_5 >= 2
- s_1_3 - s_1_5 - 1000 r_1_3_5 >= -1001
t_1_3 - t_1_5 - 1000.000000 u_1_3_5 - 13.358102 s_1_5  + 4.855388 s_1_1  + 8.502714 s_1_7  + 2000.000000 r_1_3_5 > -985.295600
s_2_3 + s_2_5 + 1000 r_2_3_5 >= 2
- s_2_3 - s_2_5 - 1000 r_2_3_5 >= -1001
t_2_3 - t_2_5 - 1000.000000 u_2_3_5 - 12.015485 s_2_5  + 3.505785 s_2_1  + 8.509700 s_2_7  + 2000.000000 r_2_3_5 > -978.476086
t_1_6 - t_1_3 - 1008.502714 s_1_3  + 8.502714 s_1_7  > -972.907800
t_1_6 - t_2_3 - 1008.509700 s_2_3  + 8.509700 s_2_7  > -961.815067
t_2_6 - t_1_3 - 1008.502714 s_1_3  + 8.502714 s_1_7  > -972.907800
t_2_6 - t_2_3 - 1008.509700 s_2_3  + 8.509700 s_2_7  > -961.815067
t_1_3 - t_1_7 - 1000.000000 s_1_7  > -982.060833
t_1_3 - t_2_7 - 1000.000000 s_2_7  > -976.580100
t_2_3 - t_1_7 - 1000.000000 s_1_7  > -982.060833
t_2_3 - t_2_7 - 1000.000000 s_2_7  > -976.580100
s_1_4 + s_1_3 + 1000 r_1_3_4 >= 2
- s_1_4 - s_1_3 - 1000 r_1_3_4 >= -1001
t_1_4 - t_1_3 + 1000.000000 u_1_3_4 - 8.502714 s_1_3  + 8.502714 s_1_7  + 2000.000000 r_1_3_4 > 27.092200
s_2_4 + s_2_3 + 1000 r_2_3_4 >= 2
- s_2_4 - s_2_3 - 1000 r_2_3_4 >= -1001
t_2_4 - t_2_3 + 1000.000000 u_2_3_4 - 8.509700 s_2_3  + 8.509700 s_2_7  + 2000.000000 r_2_3_4 > 38.184933
s_1_4 + s_1_5 + 1000 r_1_4_5 >= 2
- s_1_4 - s_1_5 - 1000 r_1_4_5 >= -1001
t_1_4 - t_1_5 - 1000.000000 u_1_4_5 - 13.358102 s_1_5  + 4.855388 s_1_1  + 8.502714 s_1_7  + 2000.000000 r_1_4_5 > -985.295600
s_2_4 + s_2_5 + 1000 r_2_4_5 >= 2
- s_2_4 - s_2_5 - 1000 r_2_4_5 >= -1001
t_2_4 - t_2_5 - 1000.000000 u_2_4_5 - 12.015485 s_2_5  + 3.505785 s_2_1  + 8.509700 s_2_7  + 2000.000000 r_2_4_5 > -978.476086
t_1_6 - t_1_4 - 1009.710776 s_1_4  + 4.855388 s_1_1  + 4.855388 s_1_2  > -994.818600
t_1_6 - t_2_4 - 1007.011569 s_2_4  + 3.505785 s_2_1  + 3.505785 s_2_2  > -994.909644
t_2_6 - t_1_4 - 1009.710776 s_1_4  + 4.855388 s_1_1  + 4.855388 s_1_2  > -994.818600
t_2_6 - t_2_4 - 1007.011569 s_2_4  + 3.505785 s_2_1  + 3.505785 s_2_2  > -994.909644
s_1_5 + s_1_2 + 1000 r_1_2_5 >= 2
- s_1_5 - s_1_2 - 1000 r_1_2_5 >= -1001
t_1_5 - t_1_2 + 1000.000000 u_1_2_5 - 8.502714 s_1_2  + 8.502714 s_1_7  + 2000.000000 r_1_2_5 > 32.855000
s_2_5 + s_2_2 + 1000 r_2_2_5 >= 2
- s_2_5 - s_2_2 - 1000 r_2_2_5 >= -1001
t_2_5 - t_2_2 + 1000.000000 u_2_2_5 - 8.509700 s_2_2  + 8.509700 s_2_7  + 2000.000000 r_2_2_5 > 50.838331
s_1_5 + s_1_3 + 1000 r_1_3_5 >= 2
- s_1_5 - s_1_3 - 1000 r_1_3_5 >= -1001
t_1_5 - t_1_3 + 1000.000000 u_1_3_5 - 8.502714 s_1_3  + 8.502714 s_1_7  + 2000.000000 r_1_3_5 > 27.092200
s_2_5 + s_2_3 + 1000 r_2_3_5 >= 2
- s_2_5 - s_2_3 - 1000 r_2_3_5 >= -1001
t_2_5 - t_2_3 + 1000.000000 u_2_3_5 - 8.509700 s_2_3  + 8.509700 s_2_7  + 2000.000000 r_2_3_5 > 38.184933
s_1_5 + s_1_4 + 1000 r_1_4_5 >= 2
- s_1_5 - s_1_4 - 1000 r_1_4_5 >= -1001
t_1_5 - t_1_4 + 1000.000000 u_1_4_5 - 9.710776 s_1_4  + 4.855388 s_1_1  + 4.855388 s_1_2  + 2000.000000 r_1_4_5 > 5.181400
s_2_5 + s_2_4 + 1000 r_2_4_5 >= 2
- s_2_5 - s_2_4 - 1000 r_2_4_5 >= -1001
t_2_5 - t_2_4 + 1000.000000 u_2_4_5 - 7.011569 s_2_4  + 3.505785 s_2_1  + 3.505785 s_2_2  + 2000.000000 r_2_4_5 > 5.090356
t_1_6 - t_1_5 - 1013.358102 s_1_5  + 4.855388 s_1_1  + 8.502714 s_1_7  > -985.295600
t_1_6 - t_2_5 - 1012.015485 s_2_5  + 3.505785 s_2_1  + 8.509700 s_2_7  > -978.476086
t_2_6 - t_1_5 - 1013.358102 s_1_5  + 4.855388 s_1_1  + 8.502714 s_1_7  > -985.295600
t_2_6 - t_2_5 - 1012.015485 s_2_5  + 3.505785 s_2_1  + 8.509700 s_2_7  > -978.476086
t_1_5 - t_1_7 - 1000.000000 s_1_7  > -982.060833
t_1_5 - t_2_7 - 1000.000000 s_2_7  > -976.580100
t_2_5 - t_1_7 - 1000.000000 s_1_7  > -982.060833
t_2_5 - t_2_7 - 1000.000000 s_2_7  > -976.580100
Binary
s_1_1
s_2_1
s_1_2
s_2_2
s_1_3
s_2_3
s_1_4
s_2_4
s_1_5
s_2_5
s_1_6
s_2_6
s_1_7
s_2_7
u_1_1_2
r_1_1_2
u_2_1_2
r_2_1_2
u_1_1_3
r_1_1_3
u_2_1_3
r_2_1_3
u_1_2_3
r_1_2_3
u_2_2_3
r_2_2_3
u_1_2_5
r_1_2_5
u_2_2_5
r_2_2_5
u_1_3_4
r_1_3_4
u_2_3_4
r_2_3_4
u_1_3_5
r_1_3_5
u_2_3_5
r_2_3_5
u_1_4_5
r_1_4_5
u_2_4_5
r_2_4_5

End
